Bis(ammonium) trimolybdenum polysulfide 
   1.00000000000000     
    20.9761219025000010    0.0000000000000000    0.0000000000000000
    -0.2029812377000000   30.8902518394999994    0.0000000000000000
    -5.1537272625000004   -0.0681783570000000    9.8966848394000007
   Mo   S    Mn
    48   208     8
Direct
  0.1536277574172163  0.8216606303995112  0.8037364903309716
  0.5247355118574312  0.3045245380268019  0.5351578260284857
  0.6602848834469541  0.1110177480129758  0.0674034352096099
  0.1555553071919607  0.4664796706935130  0.6787200313347352
  0.0280556470225148  0.3362416003512926  0.0218022675327200
  0.2558535832080857  0.1820590244244857  0.5292612853467221
  0.8447164516762914  0.7364015372714722  0.5925983654456923
  0.2992833528604510  0.4332399388500179  0.8387218777698510
  0.9179803995570535  0.5561393592675226  0.1961244735677101
  0.3820029723043495  0.0447151448277366  0.7412825626623707
  0.3345397946623059  0.9592446909388382  0.6597128770095321
  0.7509149359341358  0.8432563527495307  0.2236499529588303
  1.0076453978847961  0.4763948332639208  0.9747708625391193
  0.4060632177138551  0.7405639155223818  0.1722417020819343
  0.1417248809669899  0.1181519789242489  0.3844364883811610
  0.3650980874621709  0.6062183055705441  0.7423026962809990
  0.5591411234201017  0.9010523013105003  0.0810656428099938
  0.9681884600501314  0.9281227352303545  0.0668074627937870
  0.4818670670328783  0.4627818779018422  0.5369102256763986
  0.5820422194460422  0.3693031129244964  0.4327925611700554
  0.8558024297567363  0.2780236800296840  0.3252326698417704
  0.6875061681015998  0.5430182445591697 -0.0171365213202963
  0.6930245612697805  0.1035330403412896  0.8244680654776558
  0.9114100585983759  0.7950201587416157  0.2981650230676497
  0.6075387725510294  0.4613232118705273  0.5039862082764324
  0.2158144158127734  0.5504885354906582  0.7199440341208568
  0.2605674927131931  0.2417375756662933 -0.0595984366731430
  0.9120428428309105  0.6435147190605310  0.7453431235676333
  0.2837807048743620  0.7605637024190210  0.1889001260918648
  0.4794677562472886  0.1146042930454460 -0.0694917396562790
  0.4884066594791991  0.8590341604850479  0.6931003852119424
  0.5617064952313593  0.9964731311738459  0.3431758066045634
  0.5773499542396049  0.1917104784955811 -0.0053487700399867
  0.1755107813418378  0.3684518810177100  0.2644585481242899
  0.0536727962429193  0.7698901959143355  0.3692506175037357
  0.0438981761330279  0.6080845599428302  0.9344360527829132
  0.3560066867021660  0.5265756052697165  0.8865929952444653
 -0.0115660653725105  0.1118015953813046  0.3806229092888611
  0.6440891740724883  0.0539840885134767  0.5653956074699743
  0.4927934113206704  0.3383507370081095  0.8867506675695873
  0.6848415216453467  0.1459486499242102  0.6005510850544841
  0.0490840110183563  0.2539676996988358  0.3421232349070120
  0.7269010155316235  0.8249286045498666  0.7436921162589420
  0.1982493744117848  0.6338967150841700  0.5790604698159029
  0.8979378047769893  0.1806652482288801  0.3568863597144423
  0.3277602241355675  0.1916231867790115  0.8240167365619140
  0.6884574744827877  0.7498752168874299  0.1928659132249939
  0.5845294010918293  0.0584578662112099  0.1755030096885888
  0.8173996572805979  0.2231537960191963  0.1210895353822951
  0.5823176471226426  0.9139985546363543  0.3186514080528102
  0.2185100096601099  0.3456684755085837  0.1098451738514854
  0.2203850224798876  0.1786341306374028  0.8207811880891231
  0.4616279043165217  0.3466111464703513  0.3408373199610493
  0.6469376492054278  0.3161651009271687  0.5762002310974124
  0.5898468788032168  0.9859255432355000  0.1754892551056391
  0.5467919779034155  0.3303963292750215  0.7380572185480826
  0.6630032803724557  0.1704723131477370 -0.0790796302663439
  0.8380333244394879  0.6845352216660697  0.4264411847585555
  0.5496712307446818  0.8865168080617686  0.5955408048088524
  0.6731652721028329  0.4784780110231697  1.0362656412836539
  0.1840673383209868  0.4070616602450131  0.8145464665787000
  0.1421152880076119  0.6242842488889537  0.7037377477892028
  0.8283643296538407  0.8946439818674691  0.4122008000931412
  0.9088708644767065  0.7674379268650716  0.8140638049260757
 -0.0742887188388596  0.4429747122353269  1.0285940156269346
  0.3142225693955052  0.5065918330975667  0.2435872718622453
  0.2653282277602867  0.7631681533723214  0.3914402127175278
  0.0976913370326831  0.5286097043727218  0.6735562200989614
  0.9019512032479192  0.1444827019841061  0.1759252294554040
  0.0288269259333977  0.1087180969239368  0.2127136147363741
  0.5772587213580450  0.7169035435652098  0.1679270595305030
  0.1410989283708620  0.7321102829430893  0.5447464452884875
  0.3938819009763160  0.4080814914558640  0.3495975538629157
  0.1591704241648608  0.8821289220328568  0.0732304582575117
  0.1103429889192162  0.1147422745545684  0.5597511336586031
  1.0554994297433284  0.8651949279339964  0.6629987509153368
  0.7786967750059473  0.1481177451395163  0.8023634467423625
  0.6856421981932103  0.5102300335775722  0.4384191442829325
  0.7072487674736643  0.0594721032664473  0.2666394289151895
  0.1032283180026167  0.0003080741407556  0.3237851504821256
  0.4242255153651453  0.5392023430864187  0.7739736566145896
  0.3004950230039227  0.6958079906512037  0.0922910578361425
  0.6226076712059720  0.5748287615239682  0.3037870506895671
  0.8007584855718333  0.5229021723629971  0.0091517475862791
  0.5885002746851580  0.5692502414849009 -0.1965437846049900
  0.8143325971629303  0.2186928562973914  0.4450968999981545
  0.7591385933484938  0.8501818935896736  0.4367524325657113
  0.5129862991656344  0.4752422426304707  0.7493587967595067
  0.1379580037906479  0.2044755198327541  0.3868638289003733
  0.6683532362080815  0.5986512528253737  0.7672441407283535
  0.0336712008711672  0.8361034447720925  0.7998694466467450
  0.9698961404866380  0.5851803841799523  0.7195803199352270
  0.2886446990335825  0.1258877519461919  0.6861789264497872
  0.9126615228082217  0.0543138667030485  0.3034853696836496
  0.5676760753600725  0.4371489402375210  0.2954346027752278
  0.3723506854459227  0.6032673141863768  0.2422616074448797
  0.8143409006620231  0.6021571599851988  0.5688644821106781
 -0.0374858399749946  0.6957619684823215  0.6793466197193976
  0.1781950908349534  0.0505341052897662  0.3814131854216387
  0.7531766772207572  0.6826219619415628  0.2436594502316439
  0.2089438593515653  0.4323600758104225  0.3662749547587274
  0.9767146927093590  0.6045731943084189  0.3685193165300302
  0.2030919682985150  0.9879669876653132  0.1952259562654425
  0.0151322533482594  0.0818009302258052 -0.1613842199628325
  0.6988519657331493  0.4010406567157967  0.4826237734404503
 -0.0088355286917345  0.0385893953596633  0.4858236080346345
  0.2353512616557798  0.9263754187309468  0.2185609908382803
  0.0615143857212672  0.0043512844858993  0.7584340395424767
  0.4554397290172947  0.9466300320153916 -0.0060311974089265
  0.2126035636632641  0.3172490010817218  0.4068378464086569
  0.3513587451042041  0.6688478574890252  0.4452916910811905
  0.3990562648297734  0.3169170482746818  0.9082743211427774
  0.9816781291686117  0.2814859971668227  0.8360025760763163
  0.0935152973478645  0.8040354406896711  0.2311130136454425
  0.2144917640690300  0.2959473257327710  0.8159117084004909
  0.8637366206192246  0.5688231282462980 -0.0294299774974379
  0.4950621461883574  0.2407589632822888  0.3951968096830811
  0.2151750277521829  0.8374898902649935  0.6720343238343359
  0.6323917653441316  0.8195012387417919  0.5038028859335913
  0.7439046428456136  0.2624085744830920  0.1261899305447244
  0.1042501758379234  0.4391307271542441  0.4665455829249445
  0.5434054228562885  0.3320794908875473  0.2212947217090453
  0.6521050586953376  0.7619008278800157  0.6146346444010863
  0.3808943854416648  0.2471529182520428 -0.0098428368928235
  0.7377084524239209  0.6371978442669016  0.5879138300296808
  0.7331423880386845  0.6462126891785430  0.9203400732291346
  0.2314160563838010  0.9189155089112849  0.5147169785311909
  0.8346076857666528  0.8096014430084995  0.6893165776911577
  0.2983309191045491  0.2446933241083681  0.6644167461877488
  0.4733634530424414  0.6474783741758394  0.8330513238556799
  0.4236097885661496  0.0545582956549684 -0.0228025287487513
  0.8037857072741812  0.7944280549422883  0.9301673694007677
  0.2918436882411294  0.6765567409633175  0.6594401393828564
  0.9652931945778160  0.6484127816694106  0.9791002672221916
  0.6376481386335752  0.0378040502199481  0.7694013624434586
  0.2576963619085657  0.5024236567686384  0.9239093658496357
  0.1029067736660189  0.3081116761705139  0.4596677485323078
  0.4164076350745355  0.2390623832050420  0.6088542556703421
  0.4990816844548057  0.8401921473199340  0.9110424813799076
  0.4571469422818835  0.9868549918283378  0.8002685470736570
  0.6880150428727849  0.7064328772473182  0.8847623642102264
  0.1229928920589273  0.3072536822071596  1.0062894122848773
  0.2599952395350714  0.4879888655672157  0.6561843561821116
  0.3544971422182467  0.1866045812736391  0.4810798261744971
  0.3930096297071035  0.6121041820874747  0.5441680173683142
  0.2011036777493853  0.7136992451355610  0.2650562861591286
  0.4336213200177764  0.9838708913826851  0.2227530573066639
  0.7310113424883512  0.7569355433992266  0.4206858810521255
  0.2458505467607364  0.5725110097628688  0.5499060408180857
  0.3121450302635073  0.3945948705604391  0.6788635539331318
  0.0145494540671125  0.8394461146370076  0.3870357807744721
  0.6531813826342394  0.9801615457665509  0.5469893386207948
  0.3632355915599016  0.8500134761642610  0.5466003448505208
  0.9290920747106234  0.1021391797359920  0.8472218936019086
  0.4250303693694832  0.6447634963518907  0.9506606537824948
  0.3869604941424837  0.2875132143165038  0.4742911125349756
  0.5483239968551296  0.5528719475390147  0.1136883120834329
  0.2924795599269876  0.2453699356804531  0.1730066308053596
  0.9464588683127101  0.7322043277888812  0.2288391861145977
  0.7820536488281556  0.4041267561986100  0.0620621102934919
  0.3611089321026071  0.0894911384616539  0.0565729664856542
  0.7710514166143009  0.0482285066476571  0.7696004378032643
 -0.0330884466386020  0.1441332221944724  0.5516240561566301
  0.7430624494762407  0.3826625062864114  0.7959313609761598
  0.9116617250287012  0.9983769629106065  0.9935233762725277
  0.0810507131951404  0.9138116704620226  0.2336370609772752
  0.7619712573070807  0.5131730758198615  0.6400967921156377
  0.9715396387804536  0.2415524814745066  0.4382383483612723
  0.8058408205634339  0.6873819785410149  0.7178552224797584
  0.7722944212254802  0.0887364812435170  0.0624722632519571
  0.5638724938252364  0.9165668862462233  0.8719858576840399
  0.9560635325450206  0.8867065669204744  0.9035487500585849
  0.3528643690324275  0.0147470600734153  0.5078728846295855
  0.5365786549222016  0.2239308571680135  0.5882696259167876
  0.4112451753917652  0.4270947421649052  0.1910129508685218
  0.8771714995188234  0.0807106962129542  0.5350099741124416
  0.8789767968723828  0.9230312520611579  0.1433222026925965
  0.5394615898708572  0.0712688391976162  0.3345795827770973
  0.0567671130274784  0.3737926157817063  0.2230553335502561
  0.5718134279249182  0.0600311473875372  0.9419414394782910
  0.2545586087550585  0.7877809158778135  0.8040512193138717
  0.1740562766970596  0.7779833565536641  0.9946058168083214
  0.3649290901578326  0.4984295607614885  0.4604273131021792
  0.5998445019069343  0.3575924665292320  0.1182793734115413
  0.7381140090923326  0.0948357339055604  0.5253471168381177
  0.4917494122343039  0.7857430766172870  0.6508843687859498
  1.0138555790305332 -0.0091265893232866  0.0185638857647884
  0.2030615686365309  0.8847559782492520 -0.0604245788969353
  0.9730934745446694  0.3429380648901270  0.7748327872446884
  0.0264463100841182  0.4453134666694459  0.5350475653991839
  0.7101225680210100  0.4775896223791342  0.7246501520923041
  0.0271416972311947  0.5235663012204032  1.1727779433813428
  0.4064279377278252  0.1464353017275658  0.0358909891730687
  0.4505529172423591  0.5580688577178009  1.0977732998766279
  0.9403114573312829  0.4889573999579365  0.7631670936597771
  0.3516486675843349  0.9196386767411108  0.8499775693216324
  0.7891748275192301  0.1597953518353157  0.3513408897425656
  0.6439990375051892  0.8182759906536805  0.8401592274798203
  0.6292990917620442  0.8215402139010402  0.1482476666077076
  0.5297300578725191  0.4055075061526501  0.9865462037236689
  0.8205033891388984  0.4132658080032104  0.2716894435747171
  0.4630202929853781  0.0190293723534496  0.5410188018071167
  0.1893590712710803  0.2264765831553976  0.0594942568252493
  0.5017754166302362  0.7677751230161485  0.1225390844715421
  0.8036417295764270  0.9558644054253325  0.3979496889978141
  0.7248523953307919  0.8953464567608838  0.8163389862160604
  0.3413509849625014  0.8085522522079017  1.0933997572225607
  0.0684839234432377  0.4152443904157554  0.9885676979516557
  0.5297534395470361  0.5156200217124826  0.4604723755038571
  0.2800449956653240  0.5694455556948385  0.2233012907530085
  0.3066426342688544  0.5936130530059711  0.8928836040793662
  0.4726054416694224 -0.0268813707449771  0.4295516073611440
  0.8712777615804997  0.5861164735511828  0.3267220971790289
 -0.0640077927681698  0.4895468397893810  0.2579396600528945
  0.9085093682290902  0.3727714523813419  0.9571216340162452
  0.5819560094465900  0.2709712197039421  0.9661853758450957
  0.4710435302044580  0.7101795993244093  0.3893368124031893
  0.4002083876080315  0.7981686913150337  0.3129207435840144
  0.9782236369483438  0.3782481648113096  0.5304718981042180
  0.7906445061794645  0.3793381753654780  0.6662224704171068
  0.5866245503320725  0.1193569538626282  0.6172649649200356
  0.7764863330032888  0.7781515472245725  0.1363544652760035
  0.9060788967907099  0.7817464709159306  0.4827413481918801
  0.8359624695881511  0.3182548538690790  0.4776805546559825
  0.1039039967103775  0.5368191759874023  0.9878335003940215
  0.6212318752956889  0.7135066894430643  0.9734573659431197
  0.7349892262038488  0.2989452461494859  0.9250057109137482
  0.5671245698918944  0.4087605948067239  0.6061736588753102
  0.8478095738040514  0.8573831981268314  0.1439226411596102
  0.4628139589962650  0.1865725366630876  0.8330363209058351
  0.7619507001155338  0.8954240721838777  0.6845529643726828
  0.5893697724622639  0.1411091439607521  0.1618536131899960
  0.4741281505484169  0.6724842562210022  0.2453297121274883
  0.3974068687189118  0.9131308871021077  0.5718256535716185
  0.0855854933752984  0.7405701077212943  0.1805575240202213
  0.8097042028771303  0.2811217358717160  0.8800899526568650
  0.1027899326935948  0.5696627448073976  1.1585371791079677
  0.2413288637812382  0.1308543239203311  0.3509743252624080
 -0.0097225347614378  0.2719406258351650  0.1196228263349858
  0.0786812081062702  0.7643875046442364  0.6195867912806399
  0.4916611861896331  0.8751872561230627  0.2000282117179533
  0.4402449106473441  0.1049658389565053  0.7007193209512965
  0.1103996330311221  0.6413602944407305  0.3705348451073339
 -0.0175770585988408 -0.0315699713619716  0.6313839428079140
  0.7223369875953869  0.5832461501245739  0.1559121927807230
  0.3253164226426647  0.3967048585542379  1.0410080529006316
  0.4098739879828961  0.7467788966182636  0.9637525016566884
  0.8833896457994799  0.3318913907329382  0.2153935194113246
  0.5904163002066685  0.2454511551158059  0.1450972764673400
  0.2684675176305825  0.0162130165266850  0.6701618726716002
  0.6859601594974274  0.9056080910750958  0.1241384184874146
  0.4103005215520124  0.3755115616807542  0.6849161183717004
  0.8797040511688278  0.0055592865007289  0.7243391030151988
  0.4155439300956429  0.4587106445400929  0.9687559299023449
  0.1266434105399159  0.6512279824031616  0.9513530624781380
  0.6842597213403547  0.2093014804399109  0.5149758006238313
  0.8775521405558816  0.3613219745669782  0.3792039588650085
  0.8167675197076310  0.3514094480088808  0.9860342765524680
  0.6157957340465244  0.8556354759151698 -0.0333759077327948
  0.5788687590665356  0.8201231116418684  0.6380731308500527
  0.3776969129931735  0.6689921776621648  0.2869523767054641
  0.8461724762680418  0.0696292767148147  0.6880454549033579
 -0.0465928588410069  0.0384235243931362  0.6753728433117651
  0.1764643599048468  0.9492725413677496  0.3318163972322254
 
 -0.17992231E-02  0.43553403E-03 -0.32135576E-02
 -0.16108818E-03 -0.13678545E-02 -0.10633151E-02
  0.15956627E-02 -0.10057796E-03  0.65508755E-04
 -0.11609552E-02  0.21109437E-02 -0.61461375E-04
  0.52130241E-03  0.18725917E-02  0.20935958E-03
  0.26637172E-02  0.84704155E-04  0.68966009E-03
  0.20447952E-02 -0.35015785E-02 -0.48858633E-03
 -0.87682759E-03  0.21073515E-02 -0.14787519E-02
 -0.22325387E-03  0.82845873E-03 -0.22495690E-02
 -0.57333352E-03  0.23589134E-03 -0.22124583E-02
  0.10933749E-02 -0.16629839E-03  0.99541115E-03
 -0.12477569E-02 -0.67001289E-03  0.16101217E-02
 -0.25628152E-03 -0.16582539E-02 -0.19993053E-02
 -0.81172633E-03 -0.12678455E-03 -0.76509600E-03
  0.18650268E-02 -0.23092826E-02  0.11067579E-02
  0.17870954E-02  0.19393675E-03 -0.96989424E-03
  0.29852361E-03  0.20637817E-02 -0.69261856E-03
  0.32792593E-02 -0.14877304E-03  0.17632402E-03
  0.15104963E-03  0.25643096E-02  0.15746983E-03
 -0.26547518E-02 -0.75883303E-03  0.27770898E-02
 -0.15662346E-02  0.21989722E-02  0.82311368E-03
  0.11219561E-02  0.33707816E-03  0.19777015E-02
  0.87221241E-04  0.78599105E-03 -0.10485153E-02
 -0.12139659E-02 -0.10433073E-02  0.17812311E-03
  0.26855330E-03 -0.19382145E-02 -0.29327506E-03
  0.55389840E-05 -0.75282165E-03  0.97455101E-03
  0.39635702E-03 -0.67196402E-03 -0.18562626E-02
 -0.16299189E-03  0.81530792E-03 -0.38737959E-03
  0.30961737E-03 -0.45380975E-03 -0.22853217E-02
 -0.56057661E-03  0.27542250E-02  0.11520634E-02
  0.15354881E-02 -0.27330392E-02 -0.10823344E-02
 -0.18956288E-03  0.22468830E-03  0.17900694E-02
 -0.13064056E-02 -0.38227245E-03  0.84469199E-03
  0.37021152E-03 -0.16700121E-02 -0.46032483E-02
  0.84324030E-03  0.36401447E-03 -0.50399503E-03
 -0.18178281E-03 -0.19865565E-02  0.83363828E-03
  0.53522622E-03  0.99139958E-03  0.15392702E-02
  0.14409983E-03 -0.49715839E-03  0.57480510E-03
  0.64408486E-03  0.52087336E-02  0.16718536E-02
  0.63012727E-03 -0.24814293E-02 -0.13819229E-02
  0.77420722E-03  0.15499374E-02  0.51527577E-03
 -0.15131526E-02  0.10024613E-02  0.24105550E-03
 -0.22392601E-02 -0.19794971E-02  0.23755334E-02
 -0.17767953E-02 -0.22152717E-02 -0.59209442E-03
  0.37401218E-03 -0.95795438E-03  0.32302252E-03
  0.24891263E-03  0.68613161E-03 -0.12274288E-02
 -0.22680897E-02  0.23197721E-02  0.50039226E-03
  0.12725572E-02 -0.15276140E-03  0.21854149E-02
  0.22736049E-02 -0.40891154E-02  0.58174085E-02
  0.10189739E-02 -0.55965115E-03 -0.58312776E-02
  0.37242683E-02 -0.50867348E-02 -0.59413867E-03
  0.18664754E-02  0.17500979E-02  0.77952565E-03
 -0.27011351E-02  0.10901786E-02  0.63491673E-02
  0.37996717E-02 -0.82514720E-03 -0.36625439E-03
 -0.47877017E-02 -0.17507202E-02 -0.48631445E-02
 -0.46457036E-04 -0.26260656E-02  0.13034582E-02
 -0.75207034E-02 -0.87960955E-03 -0.14482607E-02
 -0.17048964E-02 -0.74013116E-03  0.48208638E-02
  0.20202536E-02  0.30437942E-02 -0.18717078E-02
 -0.86797313E-03  0.54669156E-03  0.67997567E-03
  0.64912008E-03 -0.18953565E-03 -0.44805324E-02
  0.14874512E-02 -0.25039128E-02 -0.25581701E-02
 -0.35144650E-02 -0.24258624E-03 -0.10617349E-02
 -0.96869055E-03  0.41339788E-03  0.73461170E-03
  0.60821977E-03 -0.94045272E-03 -0.39917253E-02
  0.24721840E-02  0.18969155E-02  0.45792972E-03
  0.68029930E-02 -0.27464099E-02 -0.44026292E-02
 -0.65980340E-02 -0.18379519E-02 -0.28732306E-03
 -0.28779297E-02 -0.37541593E-02  0.79121304E-02
  0.44564007E-02 -0.34615452E-02 -0.14246294E-02
  0.22819589E-02 -0.80663906E-03  0.41789149E-02
 -0.21124186E-02  0.93575540E-03 -0.23989538E-02
 -0.26555622E-02 -0.35864710E-02 -0.24153197E-02
  0.78485244E-03  0.51268723E-02 -0.15845667E-02
  0.26981669E-02 -0.16215464E-02 -0.23946557E-02
  0.10155464E-02  0.34556236E-02  0.17480100E-03
  0.80002488E-03  0.43834637E-02 -0.60394445E-03
 -0.85074496E-03  0.34053038E-02  0.77534473E-03
  0.24434775E-02  0.12707301E-02 -0.14695016E-02
  0.31156172E-03  0.76850545E-02 -0.34690690E-02
 -0.18859298E-02 -0.14469570E-02  0.47791278E-02
 -0.11099420E-02  0.29036317E-02 -0.24418494E-02
 -0.25094196E-02  0.50503439E-03  0.20815434E-02
  0.23271157E-02  0.13133243E-02 -0.69297062E-03
  0.53463136E-02 -0.27408898E-02  0.32098776E-03
  0.27981283E-02  0.95102302E-03  0.76760762E-04
  0.16649457E-02 -0.23172914E-02 -0.14604712E-02
 -0.89737018E-03  0.10239890E-02  0.54560937E-02
 -0.37401582E-02  0.19156082E-02 -0.26090087E-02
  0.21767284E-02 -0.30449246E-02 -0.10055898E-02
  0.21372557E-02 -0.15289355E-02 -0.36197569E-02
 -0.57853602E-02 -0.16859159E-02  0.19444747E-02
 -0.88651405E-03  0.16352767E-02 -0.44829010E-02
 -0.30928605E-02  0.34221219E-02 -0.16132450E-02
  0.12056922E-02 -0.33900209E-02  0.13235975E-02
  0.14952384E-02 -0.23298843E-02  0.58081643E-02
  0.14791622E-02 -0.23211854E-02  0.10509029E-02
 -0.78691808E-03 -0.39861941E-03  0.81967672E-03
  0.83953114E-02  0.13858543E-02 -0.67064220E-03
 -0.38121110E-02  0.28696180E-02  0.55649718E-02
 -0.41216737E-02 -0.30072459E-02  0.52657610E-02
  0.79475976E-04  0.28033545E-02  0.33291798E-03
  0.34523419E-02  0.20638031E-02  0.45089785E-02
  0.12761584E-02 -0.16395009E-02 -0.21890871E-02
 -0.16688960E-02 -0.83280810E-03  0.14082100E-02
  0.16078903E-02  0.61155352E-03  0.35397789E-02
 -0.44832030E-02 -0.43177539E-03  0.19407473E-02
  0.23757203E-02  0.29205789E-02 -0.12141525E-02
 -0.11204346E-02  0.15748092E-02 -0.20214265E-02
 -0.14222681E-02 -0.22015534E-02 -0.80264259E-03
 -0.99391400E-03 -0.12871747E-02  0.15031499E-02
  0.17087376E-02  0.27280978E-02  0.19025653E-02
  0.50810564E-02  0.33542575E-03 -0.16261755E-02
  0.15041568E-03 -0.14358682E-02  0.25937449E-02
  0.31274163E-03 -0.22906970E-02 -0.14171769E-02
 -0.20876558E-03 -0.26814462E-03 -0.46613878E-02
 -0.79258356E-03 -0.12620548E-02 -0.15809609E-02
  0.16596070E-02 -0.41119279E-02 -0.58819138E-02
  0.29774105E-02  0.90229221E-03 -0.77341525E-02
 -0.21059806E-02  0.18708130E-02 -0.38087872E-02
 -0.36503239E-02 -0.32158631E-02 -0.14367275E-03
 -0.30487069E-02  0.20463780E-02 -0.26178789E-03
 -0.29843482E-02  0.19506904E-02 -0.59553927E-02
  0.11473810E-02 -0.23712912E-03  0.39105231E-03
  0.81234221E-03 -0.10723725E-02 -0.61277363E-03
  0.27640151E-03 -0.11378574E-02 -0.24165141E-02
 -0.41610407E-02  0.76055241E-03  0.14941041E-02
 -0.81094389E-03 -0.32830493E-03  0.32138280E-03
  0.18126521E-02 -0.25179352E-02  0.19474914E-02
  0.44333325E-02 -0.44552876E-03  0.50182976E-02
  0.16285353E-02 -0.12000334E-02  0.11871732E-02
 -0.33678367E-02 -0.98308909E-03  0.39781671E-02
 -0.20630584E-03  0.43714080E-02  0.12176047E-02
 -0.65801504E-04  0.30138015E-02 -0.34870615E-02
  0.51068631E-02 -0.10371968E-02  0.21516842E-02
  0.71455040E-04  0.52040621E-03 -0.87750092E-03
 -0.36617160E-02  0.14147117E-02 -0.13880914E-02
 -0.43638642E-02  0.31638665E-02  0.33680653E-02
 -0.54247759E-02 -0.11793832E-02  0.29135450E-02
 -0.19442422E-02 -0.35360195E-02 -0.21995676E-02
  0.41826577E-03 -0.12269914E-02  0.50231237E-02
  0.49203097E-02  0.99040125E-03  0.77085004E-05
  0.10149476E-02  0.28791892E-02 -0.35760758E-02
 -0.46057938E-02  0.71825486E-03  0.15166942E-02
  0.12522593E-02 -0.72998862E-03  0.43126247E-02
 -0.69186118E-03  0.48747745E-02 -0.44706607E-02
 -0.44410383E-03 -0.31695745E-02  0.23183824E-02
  0.79157415E-02  0.29438484E-02 -0.22566270E-02
 -0.38235151E-02  0.39798471E-03  0.80986998E-03
  0.10534744E-02  0.58037288E-02  0.30383639E-02
  0.50971546E-02  0.41853165E-02 -0.12443189E-02
 -0.56860868E-03 -0.27935290E-02  0.47194220E-02
  0.47174949E-02 -0.10326995E-02 -0.91616859E-03
 -0.37541413E-02  0.66435091E-02  0.24786544E-02
  0.22744217E-02  0.24508916E-02 -0.10739799E-02
 -0.48961289E-03 -0.21914332E-03 -0.17761140E-02
 -0.67989998E-03  0.57931771E-02 -0.35640851E-03
 -0.22664604E-02  0.24838920E-03  0.34182299E-02
  0.42319161E-02  0.25321470E-02  0.51142954E-03
  0.22193868E-02 -0.12182166E-02 -0.18060000E-02
 -0.25624598E-02 -0.18246316E-02  0.43017125E-03
  0.32836294E-02 -0.31150623E-03 -0.10702421E-02
 -0.10822433E-02 -0.11333212E-02  0.64872006E-03
  0.15353180E-03  0.33712711E-02  0.19541760E-02
  0.66349431E-02 -0.43607657E-02 -0.14402218E-02
 -0.23362426E-02  0.32260941E-02 -0.21491967E-02
 -0.95108210E-03 -0.10786118E-02  0.21205772E-03
 -0.14770868E-02  0.45501392E-02  0.20448674E-02
  0.23450104E-03  0.44086754E-03 -0.32622779E-02
 -0.29609739E-02 -0.21077578E-02 -0.17697879E-02
  0.11918595E-02  0.37462925E-02 -0.52742487E-02
  0.26406029E-02  0.37459994E-02 -0.12172341E-02
  0.26476775E-02 -0.13509292E-02  0.19664944E-02
 -0.38721265E-02 -0.38976736E-03 -0.16471281E-02
  0.23068765E-02  0.28815839E-02 -0.18895209E-02
  0.98295436E-03  0.11116271E-02  0.29987575E-03
  0.39212302E-03 -0.31385047E-02 -0.40365333E-02
  0.43639305E-02 -0.31950910E-02  0.51728631E-02
  0.12336463E-03 -0.45878224E-02  0.48174512E-02
  0.15814050E-03 -0.59756332E-03  0.58359208E-02
  0.44087543E-03 -0.60188313E-03  0.65330364E-03
 -0.85144747E-03  0.42613270E-03  0.13894805E-02
  0.72177201E-02  0.87044268E-03  0.25153094E-02
 -0.61226458E-02 -0.62665876E-03 -0.10937096E-02
 -0.22573070E-02 -0.13726412E-02 -0.26116975E-02
  0.13135494E-04  0.82090332E-03  0.11339028E-02
 -0.38595980E-03 -0.32161747E-02  0.54853474E-02
 -0.30595779E-02 -0.11435257E-02  0.11117942E-02
  0.22275761E-02 -0.12927453E-02 -0.42469130E-02
 -0.38465973E-03 -0.56786496E-02 -0.55981584E-02
  0.28211832E-02 -0.47610577E-02  0.21295220E-02
 -0.13670725E-02 -0.27756984E-02 -0.25612535E-02
 -0.68745230E-03 -0.29127363E-02 -0.43377084E-02
  0.17274706E-03  0.30957423E-02 -0.51326818E-02
 -0.43304490E-02 -0.38438761E-02  0.90549532E-03
 -0.14956476E-02  0.27895826E-02  0.20765593E-02
 -0.10626315E-02  0.23550902E-02 -0.76055611E-03
 -0.31910214E-02  0.18250479E-02 -0.86823722E-02
  0.38347815E-02  0.78508964E-02 -0.12602870E-02
  0.56266270E-02 -0.53581678E-03 -0.19898626E-02
  0.37475664E-02 -0.48897153E-02 -0.20090374E-02
 -0.33835082E-02  0.77646980E-02 -0.65436036E-02
  0.19524244E-02 -0.39145257E-02 -0.47721756E-02
  0.15464244E-02 -0.12190567E-02  0.47708854E-02
 -0.63346574E-02 -0.42623017E-03  0.15821051E-02
 -0.26842916E-02 -0.27888243E-02  0.45091188E-02
  0.41396622E-02 -0.97309824E-03  0.10853537E-02
 -0.32201695E-02  0.11344410E-02  0.72164549E-02
  0.38091914E-02  0.54116946E-03 -0.31225742E-02
  0.10345012E-02 -0.79057277E-04 -0.11426026E-02
  0.40590913E-02  0.20023224E-02 -0.50802571E-02
  0.37510379E-02 -0.90669526E-02 -0.11769046E-02
 -0.40987360E-02  0.10948527E-02  0.93171661E-03
  0.61444974E-03 -0.16358764E-02 -0.79368925E-03
  0.11517996E-02 -0.15886647E-02  0.26216894E-02
 -0.27350836E-02  0.36937757E-02  0.40396305E-02
  0.14767433E-03  0.59279612E-03 -0.24522419E-02
 -0.45733845E-02 -0.91626391E-04  0.16083168E-02
 -0.35207210E-02 -0.25136394E-02  0.17397234E-02
 -0.47896517E-02 -0.52921025E-02  0.78768447E-03
 -0.46049594E-02  0.30504637E-02 -0.57360923E-02
 -0.14017726E-02 -0.29129729E-02  0.33593372E-02
  0.21977609E-02 -0.14155147E-02  0.25849948E-02
 -0.34220789E-02  0.27174886E-02  0.51744539E-03
 -0.20079623E-02 -0.12976702E-02  0.37050912E-02
  0.27158502E-03 -0.42722478E-02  0.19824878E-02
  0.95864779E-03 -0.22404124E-03  0.18260555E-02
 -0.27469013E-02  0.47174006E-02  0.32050629E-03
 -0.84382078E-02  0.40761395E-02  0.16611119E-02
  0.58987409E-02 -0.51453206E-02  0.20683958E-02
  0.82003083E-03 -0.27541545E-02 -0.51804759E-02
 -0.13573719E-02  0.23371330E-02  0.32202564E-02
  0.51733424E-02 -0.92232263E-03 -0.45133786E-03
  0.78979338E-03 -0.17614915E-03 -0.43452570E-02
  0.73835643E-03 -0.29623318E-02  0.38633875E-03
 -0.29339806E-02 -0.34297652E-02 -0.22639568E-02
  0.13114449E-02 -0.24513205E-02 -0.18511873E-02
 -0.33100647E-02 -0.68495416E-03  0.17029421E-02
 -0.40222560E-02  0.22287535E-02  0.46295345E-02
 -0.21153652E-03 -0.12443517E-02  0.66421844E-03
  0.11976487E-02 -0.12097747E-02  0.39271870E-02
  0.31677727E-02 -0.28851445E-02  0.21319341E-02
  0.64226154E-03 -0.32190641E-02  0.66137670E-02
 -0.23942544E-02  0.15310134E-02 -0.53822990E-02
 -0.35026521E-02  0.30166432E-02 -0.16204542E-03
  0.14274347E-02 -0.23213061E-04 -0.21227419E-02
  0.43985578E-02 -0.24426848E-02 -0.26650738E-02
 -0.30294185E-02 -0.19252563E-02  0.27089985E-02
  0.98296838E-03  0.12518419E-02  0.36689123E-02
 -0.26706764E-02  0.92031091E-03  0.11502512E-02
 -0.28093137E-02  0.11243397E-02  0.26937884E-03
 -0.19771878E-02 -0.12119953E-02 -0.38684004E-02
  0.73121552E-03  0.34254382E-02  0.91579138E-02
  0.19881523E-02 -0.92317826E-03 -0.60678965E-02
  0.18065405E-02 -0.88230353E-03  0.45121957E-02
 -0.97466319E-04  0.85107077E-03  0.25421847E-02
  0.83211622E-03 -0.10106518E-02  0.13860422E-02
 -0.22559485E-02  0.27396556E-02  0.28906321E-02
  0.28229442E-02 -0.68175265E-03 -0.38420102E-03
 -0.11033219E-02 -0.15731114E-02 -0.66723823E-03
 -0.12449066E-03  0.21241712E-02  0.60418893E-04
  0.17130412E-02  0.28206431E-02  0.49228170E-04
 -0.16423035E-02  0.10247939E-02  0.24649231E-02
  0.35122471E-04  0.43530133E-02 -0.56678879E-02
 
           1
   5.00000000000000     
  0.80608653E+01  0.67914701E-03 -0.48282901E-03  0.80607671E+01
  0.15280063E+00  0.82172754E+00  0.80211294E+00
  0.52456297E+00  0.30430195E+00  0.53462062E+00
  0.66067321E+00  0.11100154E+00  0.67436532E-01
  0.15527425E+00  0.46682129E+00  0.67868898E+00
  0.28208831E-01  0.33654494E+00  0.21908040E-01
  0.25657427E+00  0.18207350E+00  0.52960972E+00
  0.84513772E+00  0.73583422E+00  0.59235152E+00
  0.29889407E+00  0.43357939E+00  0.83797478E+00
  0.91764922E+00  0.55627095E+00  0.19498795E+00
  0.38159202E+00  0.44750860E-01  0.74016479E+00
  0.33492373E+00  0.95921888E+00  0.66021578E+00
  0.75081634E+00  0.84314970E+00  0.22446342E+00
  0.73335165E-02  0.47612419E+00  0.97376077E+00
  0.40577455E+00  0.74054254E+00  0.17185516E+00
  0.14230322E+00  0.11777942E+00  0.38499564E+00
  0.36540397E+00  0.60624862E+00  0.74181269E+00
  0.55912953E+00  0.90138558E+00  0.80715718E-01
  0.96899178E+00  0.92809885E+00  0.66896545E-01
  0.48192664E+00  0.46319712E+00  0.53698978E+00
  0.58175298E+00  0.36918338E+00  0.43419560E+00
  0.85553472E+00  0.27838053E+00  0.32564852E+00
  0.68801965E+00  0.54307501E+00  0.98386265E+00
  0.69291642E+00  0.10365909E+00  0.82393833E+00
  0.91114117E+00  0.79485148E+00  0.29825501E+00
  0.60756334E+00  0.46100916E+00  0.50383804E+00
  0.21593554E+00  0.55036777E+00  0.72043640E+00
  0.26043048E+00  0.24162674E+00  0.93946374E+00
  0.91195718E+00  0.64364626E+00  0.74514741E+00
  0.28357009E+00  0.76048770E+00  0.18774554E+00
  0.47948147E+00  0.11505139E+00  0.93109031E+00
  0.48863403E+00  0.85859057E+00  0.69255357E+00
  0.56188388E+00  0.99651150E+00  0.34408018E+00
  0.57714281E+00  0.19164954E+00  0.99507798E+00
  0.17502496E+00  0.36817643E+00  0.26213290E+00
  0.53811800E-01  0.76994855E+00  0.36899599E+00
  0.43955222E-01  0.60776394E+00  0.93485722E+00
  0.35632691E+00  0.52673779E+00  0.88737066E+00
  0.98853886E+00  0.11172176E+00  0.38091331E+00
  0.64445841E+00  0.54829056E-01  0.56624026E+00
  0.49276817E+00  0.33794754E+00  0.88605249E+00
  0.68509246E+00  0.14620010E+00  0.60081141E+00
  0.48754821E-01  0.25413023E+00  0.34224502E+00
  0.72665905E+00  0.82461085E+00  0.74489228E+00
  0.19774887E+00  0.63353748E+00  0.57876133E+00
  0.89806556E+00  0.18051055E+00  0.35704956E+00
  0.32766826E+00  0.19173288E+00  0.82339662E+00
  0.68798259E+00  0.75025126E+00  0.19311872E+00
  0.58510380E+00  0.58435577E-01  0.17660712E+00
  0.81865738E+00  0.22249840E+00  0.12402860E+00
  0.58183576E+00  0.91390147E+00  0.31570533E+00
  0.21931603E+00  0.34484446E+00  0.10954500E+00
  0.22092944E+00  0.17891828E+00  0.82117502E+00
  0.46177394E+00  0.34679469E+00  0.34404504E+00
  0.64779660E+00  0.31603113E+00  0.57601519E+00
  0.58809920E+00  0.98563674E+00  0.17303230E+00
  0.54693860E+00  0.32997272E+00  0.73871575E+00
  0.66102943E+00  0.17032832E+00  0.92018868E+00
  0.83822424E+00  0.68442080E+00  0.42887678E+00
  0.54992520E+00  0.88700740E+00  0.59459518E+00
  0.67304365E+00  0.47856726E+00  0.36609178E-01
  0.18366555E+00  0.40702599E+00  0.81228281E+00
  0.14214835E+00  0.62387610E+00  0.70244531E+00
  0.82739442E+00  0.89460353E+00  0.41166439E+00
  0.90873180E+00  0.76750566E+00  0.81443495E+00
  0.92535925E+00  0.44281804E+00  0.26577317E-01
  0.31487167E+00  0.50689938E+00  0.24381863E+00
  0.26639898E+00  0.76271870E+00  0.38921592E+00
  0.96080041E-01  0.52831189E+00  0.67341106E+00
  0.90224154E+00  0.14388386E+00  0.17992259E+00
  0.29706905E-01  0.10815621E+00  0.21199386E+00
  0.57832017E+00  0.71677764E+00  0.17003833E+00
  0.14029906E+00  0.73225907E+00  0.54353445E+00
  0.39294345E+00  0.40749828E+00  0.34837729E+00
  0.15916883E+00  0.88295701E+00  0.72429904E-01
  0.11068633E+00  0.11447714E+00  0.55854131E+00
  0.55768614E-01  0.86575446E+00  0.66308706E+00
  0.77881937E+00  0.14882659E+00  0.80205832E+00
  0.68554099E+00  0.51078209E+00  0.43881086E+00
  0.70765078E+00  0.59676149E-01  0.26589701E+00
  0.10288397E+00  0.15481346E-02  0.32203251E+00
  0.42436699E+00  0.53897346E+00  0.77638817E+00
  0.29993187E+00  0.69627526E+00  0.91057387E-01
  0.62226871E+00  0.57491283E+00  0.30483869E+00
  0.80122922E+00  0.52311398E+00  0.88016452E-02
  0.58981021E+00  0.56880695E+00  0.80361838E+00
  0.81501060E+00  0.21884688E+00  0.44513568E+00
  0.75935053E+00  0.84980518E+00  0.43601457E+00
  0.51345132E+00  0.47541407E+00  0.75211532E+00
  0.13674559E+00  0.20478268E+00  0.38554571E+00
  0.66874249E+00  0.59815727E+00  0.76673610E+00
  0.33728897E-01  0.83585193E+00  0.79804067E+00
  0.96875585E+00  0.58490966E+00  0.72056271E+00
  0.28787943E+00  0.12614744E+00  0.68391408E+00
  0.91172938E+00  0.54865984E-01  0.30267033E+00
  0.56812247E+00  0.43660170E+00  0.29610331E+00
  0.37342448E+00  0.60289667E+00  0.24519601E+00
  0.81482031E+00  0.60178262E+00  0.56939542E+00
  0.96242772E+00  0.69569836E+00  0.67976074E+00
  0.18011517E+00  0.50757677E-01  0.38107436E+00
  0.75296333E+00  0.68309265E+00  0.24647098E+00
  0.20861038E+00  0.43187918E+00  0.36893532E+00
  0.97677936E+00  0.60502733E+00  0.36868751E+00
  0.20447787E+00  0.98830607E+00  0.19750398E+00
  0.15162124E-01  0.81533114E-01  0.83750981E+00
  0.69862767E+00  0.40090743E+00  0.48333523E+00
  0.99198813E+00  0.38692331E-01  0.48761197E+00
  0.23452287E+00  0.92630769E+00  0.21954149E+00
  0.61934526E-01  0.48226653E-02  0.75782063E+00
  0.45492418E+00  0.94688268E+00  0.99294754E+00
  0.21216145E+00  0.31689176E+00  0.40643234E+00
  0.35130642E+00  0.66864119E+00  0.44605111E+00
  0.39970403E+00  0.31736075E+00  0.90923553E+00
  0.98268793E+00  0.28153848E+00  0.83518100E+00
  0.93870892E-01  0.80380592E+00  0.23242342E+00
  0.21438679E+00  0.29557497E+00  0.81519572E+00
  0.86310777E+00  0.56877453E+00  0.96821500E+00
  0.49467498E+00  0.24055292E+00  0.39439808E+00
  0.21483400E+00  0.83681776E+00  0.66906267E+00
  0.63214277E+00  0.81963866E+00  0.49989544E+00
  0.74293275E+00  0.26270714E+00  0.12426566E+00
  0.10335719E+00  0.43861004E+00  0.46647300E+00
  0.54264942E+00  0.33241043E+00  0.22116246E+00
  0.65065744E+00  0.76220993E+00  0.61162586E+00
  0.38121606E+00  0.24711497E+00  0.99035473E+00
  0.73782434E+00  0.63702358E+00  0.58760424E+00
  0.73290650E+00  0.64602582E+00  0.91911920E+00
  0.23061088E+00  0.91904028E+00  0.51547183E+00
  0.83445377E+00  0.80954866E+00  0.68947895E+00
  0.29900081E+00  0.24428793E+00  0.66540066E+00
  0.47504249E+00  0.64741186E+00  0.83558667E+00
  0.42414347E+00  0.54365378E-01  0.97779725E+00
  0.80347524E+00  0.79427336E+00  0.93217722E+00
  0.29195251E+00  0.67726567E+00  0.66005530E+00
  0.96484934E+00  0.64889672E+00  0.97733854E+00
  0.63913093E+00  0.37638565E-01  0.77048844E+00
  0.25760528E+00  0.50250691E+00  0.92346604E+00
  0.10186384E+00  0.30833912E+00  0.45896646E+00
  0.41579051E+00  0.23957825E+00  0.61055587E+00
  0.49814844E+00  0.84000450E+00  0.91251446E+00
  0.45640491E+00  0.98628019E+00  0.79915728E+00
  0.68873640E+00  0.70623987E+00  0.88730015E+00
  0.12416824E+00  0.30741400E+00  0.62933068E-02
  0.25979774E+00  0.48845091E+00  0.65437765E+00
  0.35358868E+00  0.18672253E+00  0.48184609E+00
  0.39384236E+00  0.61199083E+00  0.54634684E+00
  0.20039141E+00  0.71448331E+00  0.26279762E+00
  0.43379830E+00  0.98336044E+00  0.22392435E+00
  0.73262266E+00  0.75740953E+00  0.41954579E+00
  0.24504031E+00  0.57257633E+00  0.55031520E+00
  0.31278242E+00  0.39553767E+00  0.68039860E+00
  0.15616529E-01  0.84012218E+00  0.38640713E+00
  0.65362734E+00  0.97971464E+00  0.54937368E+00
  0.36424473E+00  0.84984530E+00  0.54613748E+00
  0.92851532E+00  0.10321728E+00  0.84847416E+00
  0.42544303E+00  0.64515901E+00  0.95011806E+00
  0.38662296E+00  0.28747576E+00  0.47339378E+00
  0.54812676E+00  0.55380925E+00  0.11350825E+00
  0.29236404E+00  0.24541395E+00  0.17473359E+00
  0.94753507E+00  0.73261476E+00  0.22909757E+00
  0.78235657E+00  0.40392756E+00  0.61149684E-01
  0.36054867E+00  0.89196277E-01  0.56790297E-01
  0.77170077E+00  0.48176892E-01  0.76905973E+00
  0.96673234E+00  0.14395050E+00  0.55195180E+00
  0.74334692E+00  0.38321037E+00  0.79691865E+00
  0.91305765E+00  0.99766951E+00  0.99279575E+00
  0.80232082E-01  0.91433146E+00  0.23255124E+00
  0.76176919E+00  0.51299872E+00  0.64020393E+00
  0.97144853E+00  0.24229126E+00  0.43927146E+00
  0.80549243E+00  0.68744970E+00  0.71620706E+00
  0.77136562E+00  0.88393339E-01  0.61578132E-01
  0.56350771E+00  0.91716739E+00  0.86932120E+00
  0.95654772E+00  0.88731155E+00  0.90293378E+00
  0.35373749E+00  0.14530587E-01  0.50886640E+00
  0.53545058E+00  0.22386593E+00  0.58743746E+00
  0.41156500E+00  0.42755906E+00  0.19005833E+00
  0.87744477E+00  0.80890962E-01  0.53516148E+00
  0.87856425E+00  0.92251874E+00  0.14128287E+00
  0.54113896E+00  0.70757439E-01  0.33719302E+00
  0.57387375E-01  0.37305539E+00  0.22548920E+00
  0.57257466E+00  0.59940931E-01  0.94488986E+00
  0.25474386E+00  0.78768422E+00  0.80438128E+00
  0.17402648E+00  0.77805388E+00  0.99530781E+00
  0.36696317E+00  0.49857326E+00  0.46169810E+00
  0.59824831E+00  0.35748981E+00  0.11772681E+00
  0.73724958E+00  0.94610641E-01  0.52402764E+00
  0.49189459E+00  0.78587722E+00  0.65145724E+00
  0.14439497E-01  0.99035895E+00  0.21335191E-01
  0.20246850E+00  0.88457212E+00  0.94013712E+00
  0.97309521E+00  0.34272408E+00  0.77268716E+00
  0.25650766E-01  0.44438806E+00  0.53221927E+00
  0.71105195E+00  0.47682136E+00  0.72572603E+00
  0.26493530E-01  0.52311416E+00  0.17148395E+00
  0.40572102E+00  0.14595900E+00  0.33699493E-01
  0.44996177E+00  0.55856422E+00  0.95180168E-01
  0.93938561E+00  0.48833623E+00  0.76362457E+00
  0.35155431E+00  0.92009252E+00  0.85102669E+00
  0.78883080E+00  0.16017571E+00  0.35095664E+00
  0.64216343E+00  0.81856172E+00  0.83577272E+00
  0.63006902E+00  0.82280958E+00  0.14761094E+00
  0.53082339E+00  0.40541856E+00  0.98554089E+00
  0.82113962E+00  0.41247210E+00  0.27067444E+00
  0.46141361E+00  0.20278896E-01  0.53771284E+00
  0.18922591E+00  0.22583764E+00  0.57083260E-01
  0.50273438E+00  0.76758312E+00  0.12494943E+00
  0.80232750E+00  0.95579718E+00  0.39874900E+00
  0.72476795E+00  0.89490008E+00  0.81861708E+00
  0.34247095E+00  0.80839595E+00  0.93948099E-01
  0.68613976E-01  0.41543606E+00  0.99221359E+00
  0.53027463E+00  0.51570414E+00  0.45889479E+00
  0.28014962E+00  0.56943149E+00  0.22272403E+00
  0.30698265E+00  0.59393149E+00  0.89031696E+00
  0.47333926E+00  0.97164971E+00  0.42895701E+00
  0.87041814E+00  0.58629473E+00  0.32719282E+00
  0.93603758E+00  0.48928117E+00  0.25753867E+00
  0.90910689E+00  0.37251723E+00  0.95844616E+00
  0.58181133E+00  0.27157361E+00  0.96822628E+00
  0.47077524E+00  0.71027282E+00  0.38809789E+00
  0.39931776E+00  0.79815565E+00  0.31373330E+00
  0.97759645E+00  0.37784324E+00  0.53135084E+00
  0.78959231E+00  0.37848246E+00  0.66662042E+00
  0.58481958E+00  0.11984432E+00  0.61436698E+00
  0.77656467E+00  0.77768379E+00  0.13805167E+00
  0.90692145E+00  0.78152023E+00  0.48404734E+00
  0.83521525E+00  0.31869529E+00  0.47794198E+00
  0.10388329E+00  0.53661326E+00  0.98970539E+00
  0.62153603E+00  0.71281738E+00  0.97445896E+00
  0.73544407E+00  0.29891102E+00  0.92592827E+00
  0.56651698E+00  0.40952453E+00  0.60633558E+00
  0.84601079E+00  0.85804483E+00  0.14476187E+00
  0.46446873E+00  0.18574200E+00  0.83408132E+00
  0.76149875E+00  0.89497250E+00  0.68193569E+00
  0.58944965E+00  0.14149103E+00  0.16348055E+00
  0.47530383E+00  0.67233446E+00  0.24510169E+00
  0.39705543E+00  0.91309753E+00  0.56963034E+00
  0.85804813E-01  0.74009105E+00  0.18075271E+00
  0.80871842E+00  0.28056406E+00  0.87894616E+00
  0.10286889E+00  0.56926390E+00  0.15760192E+00
  0.24075019E+00  0.13074535E+00  0.35183469E+00
  0.98989690E+00  0.27230654E+00  0.12196176E+00
  0.78711292E-01  0.76418683E+00  0.61992237E+00
  0.49243229E+00  0.87499582E+00  0.20201230E+00
  0.44126014E+00  0.10450122E+00  0.70179642E+00
  0.11136872E+00  0.64084662E+00  0.37387625E+00
  0.98118647E+00  0.96867184E+00  0.62866470E+00
  0.72148668E+00  0.58373425E+00  0.15583032E+00
  0.32539312E+00  0.39669873E+00  0.39935602E-01
  0.41058779E+00  0.74638054E+00  0.96240605E+00
  0.88300082E+00  0.33158278E+00  0.21676216E+00
  0.59110803E+00  0.24565787E+00  0.14695088E+00
  0.26797515E+00  0.16363264E-01  0.67074300E+00
  0.68532572E+00  0.90579038E+00  0.12427451E+00
  0.40934710E+00  0.37531107E+00  0.68296173E+00
  0.88102058E+00  0.61239512E-02  0.72896586E+00
  0.41526312E+00  0.45855445E+00  0.96569031E+00
  0.12763279E+00  0.65109020E+00  0.95363271E+00
  0.68455341E+00  0.20944207E+00  0.51626016E+00
  0.87792097E+00  0.36115993E+00  0.37990421E+00
  0.81659291E+00  0.35185612E+00  0.98749468E+00
  0.61641987E+00  0.85552470E+00  0.96642999E+00
  0.57852047E+00  0.81986774E+00  0.63773603E+00
  0.37767807E+00  0.66933607E+00  0.28698290E+00
  0.84659134E+00  0.70085890E-01  0.68807033E+00
  0.95332327E+00  0.38592150E-01  0.67661817E+00
  0.17577593E+00  0.94997081E+00  0.32895287E+00
  0.00000000E+00  0.00000000E+00  0.00000000E+00
  0.00000000E+00  0.00000000E+00  0.00000000E+00
  0.00000000E+00  0.00000000E+00  0.00000000E+00
  0.00000000E+00  0.00000000E+00  0.00000000E+00
  0.00000000E+00  0.00000000E+00  0.00000000E+00
  0.00000000E+00  0.00000000E+00  0.00000000E+00
  0.00000000E+00  0.00000000E+00  0.00000000E+00
  0.00000000E+00  0.00000000E+00  0.00000000E+00
  0.00000000E+00  0.00000000E+00  0.00000000E+00
  0.00000000E+00  0.00000000E+00  0.00000000E+00
  0.00000000E+00  0.00000000E+00  0.00000000E+00
  0.00000000E+00  0.00000000E+00  0.00000000E+00
  0.00000000E+00  0.00000000E+00  0.00000000E+00
  0.00000000E+00  0.00000000E+00  0.00000000E+00
  0.00000000E+00  0.00000000E+00  0.00000000E+00
  0.00000000E+00  0.00000000E+00  0.00000000E+00
  0.00000000E+00  0.00000000E+00  0.00000000E+00
  0.00000000E+00  0.00000000E+00  0.00000000E+00
  0.00000000E+00  0.00000000E+00  0.00000000E+00
  0.00000000E+00  0.00000000E+00  0.00000000E+00
  0.00000000E+00  0.00000000E+00  0.00000000E+00
  0.00000000E+00  0.00000000E+00  0.00000000E+00
  0.00000000E+00  0.00000000E+00  0.00000000E+00
  0.00000000E+00  0.00000000E+00  0.00000000E+00
  0.00000000E+00  0.00000000E+00  0.00000000E+00
  0.00000000E+00  0.00000000E+00  0.00000000E+00
  0.00000000E+00  0.00000000E+00  0.00000000E+00
  0.00000000E+00  0.00000000E+00  0.00000000E+00
  0.00000000E+00  0.00000000E+00  0.00000000E+00
  0.00000000E+00  0.00000000E+00  0.00000000E+00
  0.00000000E+00  0.00000000E+00  0.00000000E+00
  0.00000000E+00  0.00000000E+00  0.00000000E+00
  0.00000000E+00  0.00000000E+00  0.00000000E+00
  0.00000000E+00  0.00000000E+00  0.00000000E+00
  0.00000000E+00  0.00000000E+00  0.00000000E+00
  0.00000000E+00  0.00000000E+00  0.00000000E+00
  0.00000000E+00  0.00000000E+00  0.00000000E+00
  0.00000000E+00  0.00000000E+00  0.00000000E+00
  0.00000000E+00  0.00000000E+00  0.00000000E+00
  0.00000000E+00  0.00000000E+00  0.00000000E+00
  0.00000000E+00  0.00000000E+00  0.00000000E+00
  0.00000000E+00  0.00000000E+00  0.00000000E+00
  0.00000000E+00  0.00000000E+00  0.00000000E+00
  0.00000000E+00  0.00000000E+00  0.00000000E+00
  0.00000000E+00  0.00000000E+00  0.00000000E+00
  0.00000000E+00  0.00000000E+00  0.00000000E+00
  0.00000000E+00  0.00000000E+00  0.00000000E+00
  0.00000000E+00  0.00000000E+00  0.00000000E+00
  0.00000000E+00  0.00000000E+00  0.00000000E+00
  0.00000000E+00  0.00000000E+00  0.00000000E+00
  0.00000000E+00  0.00000000E+00  0.00000000E+00
  0.00000000E+00  0.00000000E+00  0.00000000E+00
  0.00000000E+00  0.00000000E+00  0.00000000E+00
  0.00000000E+00  0.00000000E+00  0.00000000E+00
  0.00000000E+00  0.00000000E+00  0.00000000E+00
  0.00000000E+00  0.00000000E+00  0.00000000E+00
  0.00000000E+00  0.00000000E+00  0.00000000E+00
  0.00000000E+00  0.00000000E+00  0.00000000E+00
  0.00000000E+00  0.00000000E+00  0.00000000E+00
  0.00000000E+00  0.00000000E+00  0.00000000E+00
  0.00000000E+00  0.00000000E+00  0.00000000E+00
  0.00000000E+00  0.00000000E+00  0.00000000E+00
  0.00000000E+00  0.00000000E+00  0.00000000E+00
  0.00000000E+00  0.00000000E+00  0.00000000E+00
  0.00000000E+00  0.00000000E+00  0.00000000E+00
  0.00000000E+00  0.00000000E+00  0.00000000E+00
  0.00000000E+00  0.00000000E+00  0.00000000E+00
  0.00000000E+00  0.00000000E+00  0.00000000E+00
  0.00000000E+00  0.00000000E+00  0.00000000E+00
  0.00000000E+00  0.00000000E+00  0.00000000E+00
  0.00000000E+00  0.00000000E+00  0.00000000E+00
  0.00000000E+00  0.00000000E+00  0.00000000E+00
  0.00000000E+00  0.00000000E+00  0.00000000E+00
  0.00000000E+00  0.00000000E+00  0.00000000E+00
  0.00000000E+00  0.00000000E+00  0.00000000E+00
  0.00000000E+00  0.00000000E+00  0.00000000E+00
  0.00000000E+00  0.00000000E+00  0.00000000E+00
  0.00000000E+00  0.00000000E+00  0.00000000E+00
  0.00000000E+00  0.00000000E+00  0.00000000E+00
  0.00000000E+00  0.00000000E+00  0.00000000E+00
  0.00000000E+00  0.00000000E+00  0.00000000E+00
  0.00000000E+00  0.00000000E+00  0.00000000E+00
  0.00000000E+00  0.00000000E+00  0.00000000E+00
  0.00000000E+00  0.00000000E+00  0.00000000E+00
  0.00000000E+00  0.00000000E+00  0.00000000E+00
  0.00000000E+00  0.00000000E+00  0.00000000E+00
  0.00000000E+00  0.00000000E+00  0.00000000E+00
  0.00000000E+00  0.00000000E+00  0.00000000E+00
  0.00000000E+00  0.00000000E+00  0.00000000E+00
  0.00000000E+00  0.00000000E+00  0.00000000E+00
  0.00000000E+00  0.00000000E+00  0.00000000E+00
  0.00000000E+00  0.00000000E+00  0.00000000E+00
  0.00000000E+00  0.00000000E+00  0.00000000E+00
  0.00000000E+00  0.00000000E+00  0.00000000E+00
  0.00000000E+00  0.00000000E+00  0.00000000E+00
  0.00000000E+00  0.00000000E+00  0.00000000E+00
  0.00000000E+00  0.00000000E+00  0.00000000E+00
  0.00000000E+00  0.00000000E+00  0.00000000E+00
  0.00000000E+00  0.00000000E+00  0.00000000E+00
  0.00000000E+00  0.00000000E+00  0.00000000E+00
  0.00000000E+00  0.00000000E+00  0.00000000E+00
  0.00000000E+00  0.00000000E+00  0.00000000E+00
  0.00000000E+00  0.00000000E+00  0.00000000E+00
  0.00000000E+00  0.00000000E+00  0.00000000E+00
  0.00000000E+00  0.00000000E+00  0.00000000E+00
  0.00000000E+00  0.00000000E+00  0.00000000E+00
  0.00000000E+00  0.00000000E+00  0.00000000E+00
  0.00000000E+00  0.00000000E+00  0.00000000E+00
  0.00000000E+00  0.00000000E+00  0.00000000E+00
  0.00000000E+00  0.00000000E+00  0.00000000E+00
  0.00000000E+00  0.00000000E+00  0.00000000E+00
  0.00000000E+00  0.00000000E+00  0.00000000E+00
  0.00000000E+00  0.00000000E+00  0.00000000E+00
  0.00000000E+00  0.00000000E+00  0.00000000E+00
  0.00000000E+00  0.00000000E+00  0.00000000E+00
  0.00000000E+00  0.00000000E+00  0.00000000E+00
  0.00000000E+00  0.00000000E+00  0.00000000E+00
  0.00000000E+00  0.00000000E+00  0.00000000E+00
  0.00000000E+00  0.00000000E+00  0.00000000E+00
  0.00000000E+00  0.00000000E+00  0.00000000E+00
  0.00000000E+00  0.00000000E+00  0.00000000E+00
  0.00000000E+00  0.00000000E+00  0.00000000E+00
  0.00000000E+00  0.00000000E+00  0.00000000E+00
  0.00000000E+00  0.00000000E+00  0.00000000E+00
  0.00000000E+00  0.00000000E+00  0.00000000E+00
  0.00000000E+00  0.00000000E+00  0.00000000E+00
  0.00000000E+00  0.00000000E+00  0.00000000E+00
  0.00000000E+00  0.00000000E+00  0.00000000E+00
  0.00000000E+00  0.00000000E+00  0.00000000E+00
  0.00000000E+00  0.00000000E+00  0.00000000E+00
  0.00000000E+00  0.00000000E+00  0.00000000E+00
  0.00000000E+00  0.00000000E+00  0.00000000E+00
  0.00000000E+00  0.00000000E+00  0.00000000E+00
  0.00000000E+00  0.00000000E+00  0.00000000E+00
  0.00000000E+00  0.00000000E+00  0.00000000E+00
  0.00000000E+00  0.00000000E+00  0.00000000E+00
  0.00000000E+00  0.00000000E+00  0.00000000E+00
  0.00000000E+00  0.00000000E+00  0.00000000E+00
  0.00000000E+00  0.00000000E+00  0.00000000E+00
  0.00000000E+00  0.00000000E+00  0.00000000E+00
  0.00000000E+00  0.00000000E+00  0.00000000E+00
  0.00000000E+00  0.00000000E+00  0.00000000E+00
  0.00000000E+00  0.00000000E+00  0.00000000E+00
  0.00000000E+00  0.00000000E+00  0.00000000E+00
  0.00000000E+00  0.00000000E+00  0.00000000E+00
  0.00000000E+00  0.00000000E+00  0.00000000E+00
  0.00000000E+00  0.00000000E+00  0.00000000E+00
  0.00000000E+00  0.00000000E+00  0.00000000E+00
  0.00000000E+00  0.00000000E+00  0.00000000E+00
  0.00000000E+00  0.00000000E+00  0.00000000E+00
  0.00000000E+00  0.00000000E+00  0.00000000E+00
  0.00000000E+00  0.00000000E+00  0.00000000E+00
  0.00000000E+00  0.00000000E+00  0.00000000E+00
  0.00000000E+00  0.00000000E+00  0.00000000E+00
  0.00000000E+00  0.00000000E+00  0.00000000E+00
  0.00000000E+00  0.00000000E+00  0.00000000E+00
  0.00000000E+00  0.00000000E+00  0.00000000E+00
  0.00000000E+00  0.00000000E+00  0.00000000E+00
  0.00000000E+00  0.00000000E+00  0.00000000E+00
  0.00000000E+00  0.00000000E+00  0.00000000E+00
  0.00000000E+00  0.00000000E+00  0.00000000E+00
  0.00000000E+00  0.00000000E+00  0.00000000E+00
  0.00000000E+00  0.00000000E+00  0.00000000E+00
  0.00000000E+00  0.00000000E+00  0.00000000E+00
  0.00000000E+00  0.00000000E+00  0.00000000E+00
  0.00000000E+00  0.00000000E+00  0.00000000E+00
  0.00000000E+00  0.00000000E+00  0.00000000E+00
  0.00000000E+00  0.00000000E+00  0.00000000E+00
  0.00000000E+00  0.00000000E+00  0.00000000E+00
  0.00000000E+00  0.00000000E+00  0.00000000E+00
  0.00000000E+00  0.00000000E+00  0.00000000E+00
  0.00000000E+00  0.00000000E+00  0.00000000E+00
  0.00000000E+00  0.00000000E+00  0.00000000E+00
  0.00000000E+00  0.00000000E+00  0.00000000E+00
  0.00000000E+00  0.00000000E+00  0.00000000E+00
  0.00000000E+00  0.00000000E+00  0.00000000E+00
  0.00000000E+00  0.00000000E+00  0.00000000E+00
  0.00000000E+00  0.00000000E+00  0.00000000E+00
  0.00000000E+00  0.00000000E+00  0.00000000E+00
  0.00000000E+00  0.00000000E+00  0.00000000E+00
  0.00000000E+00  0.00000000E+00  0.00000000E+00
  0.00000000E+00  0.00000000E+00  0.00000000E+00
  0.00000000E+00  0.00000000E+00  0.00000000E+00
  0.00000000E+00  0.00000000E+00  0.00000000E+00
  0.00000000E+00  0.00000000E+00  0.00000000E+00
  0.00000000E+00  0.00000000E+00  0.00000000E+00
  0.00000000E+00  0.00000000E+00  0.00000000E+00
  0.00000000E+00  0.00000000E+00  0.00000000E+00
  0.00000000E+00  0.00000000E+00  0.00000000E+00
  0.00000000E+00  0.00000000E+00  0.00000000E+00
  0.00000000E+00  0.00000000E+00  0.00000000E+00
  0.00000000E+00  0.00000000E+00  0.00000000E+00
  0.00000000E+00  0.00000000E+00  0.00000000E+00
  0.00000000E+00  0.00000000E+00  0.00000000E+00
  0.00000000E+00  0.00000000E+00  0.00000000E+00
  0.00000000E+00  0.00000000E+00  0.00000000E+00
  0.00000000E+00  0.00000000E+00  0.00000000E+00
  0.00000000E+00  0.00000000E+00  0.00000000E+00
  0.00000000E+00  0.00000000E+00  0.00000000E+00
  0.00000000E+00  0.00000000E+00  0.00000000E+00
  0.00000000E+00  0.00000000E+00  0.00000000E+00
  0.00000000E+00  0.00000000E+00  0.00000000E+00
  0.00000000E+00  0.00000000E+00  0.00000000E+00
  0.00000000E+00  0.00000000E+00  0.00000000E+00
  0.00000000E+00  0.00000000E+00  0.00000000E+00
  0.00000000E+00  0.00000000E+00  0.00000000E+00
  0.00000000E+00  0.00000000E+00  0.00000000E+00
  0.00000000E+00  0.00000000E+00  0.00000000E+00
  0.00000000E+00  0.00000000E+00  0.00000000E+00
  0.00000000E+00  0.00000000E+00  0.00000000E+00
  0.00000000E+00  0.00000000E+00  0.00000000E+00
  0.00000000E+00  0.00000000E+00  0.00000000E+00
  0.00000000E+00  0.00000000E+00  0.00000000E+00
  0.00000000E+00  0.00000000E+00  0.00000000E+00
  0.00000000E+00  0.00000000E+00  0.00000000E+00
  0.00000000E+00  0.00000000E+00  0.00000000E+00
  0.00000000E+00  0.00000000E+00  0.00000000E+00
  0.00000000E+00  0.00000000E+00  0.00000000E+00
  0.00000000E+00  0.00000000E+00  0.00000000E+00
  0.00000000E+00  0.00000000E+00  0.00000000E+00
  0.00000000E+00  0.00000000E+00  0.00000000E+00
  0.00000000E+00  0.00000000E+00  0.00000000E+00
  0.00000000E+00  0.00000000E+00  0.00000000E+00
  0.00000000E+00  0.00000000E+00  0.00000000E+00
  0.00000000E+00  0.00000000E+00  0.00000000E+00
  0.00000000E+00  0.00000000E+00  0.00000000E+00
  0.00000000E+00  0.00000000E+00  0.00000000E+00
  0.00000000E+00  0.00000000E+00  0.00000000E+00
  0.00000000E+00  0.00000000E+00  0.00000000E+00
  0.00000000E+00  0.00000000E+00  0.00000000E+00
  0.00000000E+00  0.00000000E+00  0.00000000E+00
  0.00000000E+00  0.00000000E+00  0.00000000E+00
  0.00000000E+00  0.00000000E+00  0.00000000E+00
  0.00000000E+00  0.00000000E+00  0.00000000E+00
  0.00000000E+00  0.00000000E+00  0.00000000E+00
  0.00000000E+00  0.00000000E+00  0.00000000E+00
  0.00000000E+00  0.00000000E+00  0.00000000E+00
  0.00000000E+00  0.00000000E+00  0.00000000E+00
  0.00000000E+00  0.00000000E+00  0.00000000E+00
  0.00000000E+00  0.00000000E+00  0.00000000E+00
  0.00000000E+00  0.00000000E+00  0.00000000E+00
  0.00000000E+00  0.00000000E+00  0.00000000E+00
  0.00000000E+00  0.00000000E+00  0.00000000E+00
  0.00000000E+00  0.00000000E+00  0.00000000E+00
  0.00000000E+00  0.00000000E+00  0.00000000E+00
  0.00000000E+00  0.00000000E+00  0.00000000E+00
  0.00000000E+00  0.00000000E+00  0.00000000E+00
  0.00000000E+00  0.00000000E+00  0.00000000E+00
  0.00000000E+00  0.00000000E+00  0.00000000E+00
  0.00000000E+00  0.00000000E+00  0.00000000E+00
  0.00000000E+00  0.00000000E+00  0.00000000E+00
  0.00000000E+00  0.00000000E+00  0.00000000E+00
  0.00000000E+00  0.00000000E+00  0.00000000E+00
  0.00000000E+00  0.00000000E+00  0.00000000E+00
  0.00000000E+00  0.00000000E+00  0.00000000E+00
  0.00000000E+00  0.00000000E+00  0.00000000E+00
  0.00000000E+00  0.00000000E+00  0.00000000E+00
  0.00000000E+00  0.00000000E+00  0.00000000E+00
  0.00000000E+00  0.00000000E+00  0.00000000E+00
  0.00000000E+00  0.00000000E+00  0.00000000E+00
  0.00000000E+00  0.00000000E+00  0.00000000E+00
  0.00000000E+00  0.00000000E+00  0.00000000E+00
  0.00000000E+00  0.00000000E+00  0.00000000E+00
  0.00000000E+00  0.00000000E+00  0.00000000E+00
  0.00000000E+00  0.00000000E+00  0.00000000E+00
  0.00000000E+00  0.00000000E+00  0.00000000E+00
  0.00000000E+00  0.00000000E+00  0.00000000E+00
  0.00000000E+00  0.00000000E+00  0.00000000E+00
  0.00000000E+00  0.00000000E+00  0.00000000E+00
  0.00000000E+00  0.00000000E+00  0.00000000E+00
  0.00000000E+00  0.00000000E+00  0.00000000E+00
  0.00000000E+00  0.00000000E+00  0.00000000E+00
  0.00000000E+00  0.00000000E+00  0.00000000E+00
  0.00000000E+00  0.00000000E+00  0.00000000E+00
  0.00000000E+00  0.00000000E+00  0.00000000E+00
  0.00000000E+00  0.00000000E+00  0.00000000E+00
  0.00000000E+00  0.00000000E+00  0.00000000E+00
  0.00000000E+00  0.00000000E+00  0.00000000E+00
  0.00000000E+00  0.00000000E+00  0.00000000E+00
  0.00000000E+00  0.00000000E+00  0.00000000E+00
  0.00000000E+00  0.00000000E+00  0.00000000E+00
  0.00000000E+00  0.00000000E+00  0.00000000E+00
  0.00000000E+00  0.00000000E+00  0.00000000E+00
  0.00000000E+00  0.00000000E+00  0.00000000E+00
  0.00000000E+00  0.00000000E+00  0.00000000E+00
  0.00000000E+00  0.00000000E+00  0.00000000E+00
  0.00000000E+00  0.00000000E+00  0.00000000E+00
  0.00000000E+00  0.00000000E+00  0.00000000E+00
  0.00000000E+00  0.00000000E+00  0.00000000E+00
  0.00000000E+00  0.00000000E+00  0.00000000E+00
  0.00000000E+00  0.00000000E+00  0.00000000E+00
  0.00000000E+00  0.00000000E+00  0.00000000E+00
  0.00000000E+00  0.00000000E+00  0.00000000E+00
  0.00000000E+00  0.00000000E+00  0.00000000E+00
  0.00000000E+00  0.00000000E+00  0.00000000E+00
  0.00000000E+00  0.00000000E+00  0.00000000E+00
  0.00000000E+00  0.00000000E+00  0.00000000E+00
  0.00000000E+00  0.00000000E+00  0.00000000E+00
  0.00000000E+00  0.00000000E+00  0.00000000E+00
  0.00000000E+00  0.00000000E+00  0.00000000E+00
  0.00000000E+00  0.00000000E+00  0.00000000E+00
  0.00000000E+00  0.00000000E+00  0.00000000E+00
  0.00000000E+00  0.00000000E+00  0.00000000E+00
  0.00000000E+00  0.00000000E+00  0.00000000E+00
  0.00000000E+00  0.00000000E+00  0.00000000E+00
  0.00000000E+00  0.00000000E+00  0.00000000E+00
  0.00000000E+00  0.00000000E+00  0.00000000E+00
  0.00000000E+00  0.00000000E+00  0.00000000E+00
  0.00000000E+00  0.00000000E+00  0.00000000E+00
  0.00000000E+00  0.00000000E+00  0.00000000E+00
  0.00000000E+00  0.00000000E+00  0.00000000E+00
  0.00000000E+00  0.00000000E+00  0.00000000E+00
  0.00000000E+00  0.00000000E+00  0.00000000E+00
  0.00000000E+00  0.00000000E+00  0.00000000E+00
  0.00000000E+00  0.00000000E+00  0.00000000E+00
  0.00000000E+00  0.00000000E+00  0.00000000E+00
  0.00000000E+00  0.00000000E+00  0.00000000E+00
  0.00000000E+00  0.00000000E+00  0.00000000E+00
  0.00000000E+00  0.00000000E+00  0.00000000E+00
  0.00000000E+00  0.00000000E+00  0.00000000E+00
  0.00000000E+00  0.00000000E+00  0.00000000E+00
  0.00000000E+00  0.00000000E+00  0.00000000E+00
  0.00000000E+00  0.00000000E+00  0.00000000E+00
  0.00000000E+00  0.00000000E+00  0.00000000E+00
  0.00000000E+00  0.00000000E+00  0.00000000E+00
  0.00000000E+00  0.00000000E+00  0.00000000E+00
  0.00000000E+00  0.00000000E+00  0.00000000E+00
  0.00000000E+00  0.00000000E+00  0.00000000E+00
  0.00000000E+00  0.00000000E+00  0.00000000E+00
  0.00000000E+00  0.00000000E+00  0.00000000E+00
  0.00000000E+00  0.00000000E+00  0.00000000E+00
  0.00000000E+00  0.00000000E+00  0.00000000E+00
  0.00000000E+00  0.00000000E+00  0.00000000E+00
  0.00000000E+00  0.00000000E+00  0.00000000E+00
  0.00000000E+00  0.00000000E+00  0.00000000E+00
  0.00000000E+00  0.00000000E+00  0.00000000E+00
  0.00000000E+00  0.00000000E+00  0.00000000E+00
  0.00000000E+00  0.00000000E+00  0.00000000E+00
  0.00000000E+00  0.00000000E+00  0.00000000E+00
  0.00000000E+00  0.00000000E+00  0.00000000E+00
  0.00000000E+00  0.00000000E+00  0.00000000E+00
  0.00000000E+00  0.00000000E+00  0.00000000E+00
  0.00000000E+00  0.00000000E+00  0.00000000E+00
  0.00000000E+00  0.00000000E+00  0.00000000E+00
  0.00000000E+00  0.00000000E+00  0.00000000E+00
  0.00000000E+00  0.00000000E+00  0.00000000E+00
  0.00000000E+00  0.00000000E+00  0.00000000E+00
  0.00000000E+00  0.00000000E+00  0.00000000E+00
  0.00000000E+00  0.00000000E+00  0.00000000E+00
  0.00000000E+00  0.00000000E+00  0.00000000E+00
  0.00000000E+00  0.00000000E+00  0.00000000E+00
  0.00000000E+00  0.00000000E+00  0.00000000E+00
  0.00000000E+00  0.00000000E+00  0.00000000E+00
  0.00000000E+00  0.00000000E+00  0.00000000E+00
  0.00000000E+00  0.00000000E+00  0.00000000E+00
  0.00000000E+00  0.00000000E+00  0.00000000E+00
  0.00000000E+00  0.00000000E+00  0.00000000E+00
  0.00000000E+00  0.00000000E+00  0.00000000E+00
  0.00000000E+00  0.00000000E+00  0.00000000E+00
  0.00000000E+00  0.00000000E+00  0.00000000E+00
  0.00000000E+00  0.00000000E+00  0.00000000E+00
  0.00000000E+00  0.00000000E+00  0.00000000E+00
  0.00000000E+00  0.00000000E+00  0.00000000E+00
  0.00000000E+00  0.00000000E+00  0.00000000E+00
  0.00000000E+00  0.00000000E+00  0.00000000E+00
  0.00000000E+00  0.00000000E+00  0.00000000E+00
  0.00000000E+00  0.00000000E+00  0.00000000E+00
  0.00000000E+00  0.00000000E+00  0.00000000E+00
  0.00000000E+00  0.00000000E+00  0.00000000E+00
  0.00000000E+00  0.00000000E+00  0.00000000E+00
  0.00000000E+00  0.00000000E+00  0.00000000E+00
  0.00000000E+00  0.00000000E+00  0.00000000E+00
  0.00000000E+00  0.00000000E+00  0.00000000E+00
  0.00000000E+00  0.00000000E+00  0.00000000E+00
  0.00000000E+00  0.00000000E+00  0.00000000E+00
  0.00000000E+00  0.00000000E+00  0.00000000E+00
  0.00000000E+00  0.00000000E+00  0.00000000E+00
  0.00000000E+00  0.00000000E+00  0.00000000E+00
  0.00000000E+00  0.00000000E+00  0.00000000E+00
  0.00000000E+00  0.00000000E+00  0.00000000E+00
  0.00000000E+00  0.00000000E+00  0.00000000E+00
  0.00000000E+00  0.00000000E+00  0.00000000E+00
  0.00000000E+00  0.00000000E+00  0.00000000E+00
  0.00000000E+00  0.00000000E+00  0.00000000E+00
  0.00000000E+00  0.00000000E+00  0.00000000E+00
  0.00000000E+00  0.00000000E+00  0.00000000E+00
  0.00000000E+00  0.00000000E+00  0.00000000E+00
  0.00000000E+00  0.00000000E+00  0.00000000E+00
  0.00000000E+00  0.00000000E+00  0.00000000E+00
  0.00000000E+00  0.00000000E+00  0.00000000E+00
  0.00000000E+00  0.00000000E+00  0.00000000E+00
  0.00000000E+00  0.00000000E+00  0.00000000E+00
  0.00000000E+00  0.00000000E+00  0.00000000E+00
  0.00000000E+00  0.00000000E+00  0.00000000E+00
  0.00000000E+00  0.00000000E+00  0.00000000E+00
  0.00000000E+00  0.00000000E+00  0.00000000E+00
  0.00000000E+00  0.00000000E+00  0.00000000E+00
  0.00000000E+00  0.00000000E+00  0.00000000E+00
  0.00000000E+00  0.00000000E+00  0.00000000E+00
  0.00000000E+00  0.00000000E+00  0.00000000E+00
  0.00000000E+00  0.00000000E+00  0.00000000E+00
  0.00000000E+00  0.00000000E+00  0.00000000E+00
  0.00000000E+00  0.00000000E+00  0.00000000E+00
  0.00000000E+00  0.00000000E+00  0.00000000E+00
  0.00000000E+00  0.00000000E+00  0.00000000E+00
  0.00000000E+00  0.00000000E+00  0.00000000E+00
  0.00000000E+00  0.00000000E+00  0.00000000E+00
  0.00000000E+00  0.00000000E+00  0.00000000E+00
  0.00000000E+00  0.00000000E+00  0.00000000E+00
  0.00000000E+00  0.00000000E+00  0.00000000E+00
  0.00000000E+00  0.00000000E+00  0.00000000E+00
  0.00000000E+00  0.00000000E+00  0.00000000E+00
  0.00000000E+00  0.00000000E+00  0.00000000E+00
  0.00000000E+00  0.00000000E+00  0.00000000E+00
  0.00000000E+00  0.00000000E+00  0.00000000E+00
  0.00000000E+00  0.00000000E+00  0.00000000E+00
  0.00000000E+00  0.00000000E+00  0.00000000E+00
  0.00000000E+00  0.00000000E+00  0.00000000E+00
  0.00000000E+00  0.00000000E+00  0.00000000E+00
  0.00000000E+00  0.00000000E+00  0.00000000E+00
  0.00000000E+00  0.00000000E+00  0.00000000E+00
  0.00000000E+00  0.00000000E+00  0.00000000E+00
  0.00000000E+00  0.00000000E+00  0.00000000E+00
  0.00000000E+00  0.00000000E+00  0.00000000E+00
  0.00000000E+00  0.00000000E+00  0.00000000E+00
  0.00000000E+00  0.00000000E+00  0.00000000E+00
  0.00000000E+00  0.00000000E+00  0.00000000E+00
  0.00000000E+00  0.00000000E+00  0.00000000E+00
  0.00000000E+00  0.00000000E+00  0.00000000E+00
  0.00000000E+00  0.00000000E+00  0.00000000E+00
  0.00000000E+00  0.00000000E+00  0.00000000E+00
  0.00000000E+00  0.00000000E+00  0.00000000E+00
  0.00000000E+00  0.00000000E+00  0.00000000E+00
  0.00000000E+00  0.00000000E+00  0.00000000E+00
  0.00000000E+00  0.00000000E+00  0.00000000E+00
  0.00000000E+00  0.00000000E+00  0.00000000E+00
  0.00000000E+00  0.00000000E+00  0.00000000E+00
  0.00000000E+00  0.00000000E+00  0.00000000E+00
  0.00000000E+00  0.00000000E+00  0.00000000E+00
  0.00000000E+00  0.00000000E+00  0.00000000E+00
  0.00000000E+00  0.00000000E+00  0.00000000E+00
  0.00000000E+00  0.00000000E+00  0.00000000E+00
  0.00000000E+00  0.00000000E+00  0.00000000E+00
  0.00000000E+00  0.00000000E+00  0.00000000E+00
  0.00000000E+00  0.00000000E+00  0.00000000E+00
  0.00000000E+00  0.00000000E+00  0.00000000E+00
  0.00000000E+00  0.00000000E+00  0.00000000E+00
  0.00000000E+00  0.00000000E+00  0.00000000E+00
  0.00000000E+00  0.00000000E+00  0.00000000E+00
  0.00000000E+00  0.00000000E+00  0.00000000E+00
  0.00000000E+00  0.00000000E+00  0.00000000E+00
  0.00000000E+00  0.00000000E+00  0.00000000E+00
  0.00000000E+00  0.00000000E+00  0.00000000E+00
  0.00000000E+00  0.00000000E+00  0.00000000E+00
  0.00000000E+00  0.00000000E+00  0.00000000E+00
  0.00000000E+00  0.00000000E+00  0.00000000E+00
  0.00000000E+00  0.00000000E+00  0.00000000E+00
  0.00000000E+00  0.00000000E+00  0.00000000E+00
  0.00000000E+00  0.00000000E+00  0.00000000E+00
  0.00000000E+00  0.00000000E+00  0.00000000E+00
  0.00000000E+00  0.00000000E+00  0.00000000E+00
  0.00000000E+00  0.00000000E+00  0.00000000E+00
  0.00000000E+00  0.00000000E+00  0.00000000E+00
  0.00000000E+00  0.00000000E+00  0.00000000E+00
  0.00000000E+00  0.00000000E+00  0.00000000E+00
  0.00000000E+00  0.00000000E+00  0.00000000E+00
  0.00000000E+00  0.00000000E+00  0.00000000E+00
  0.00000000E+00  0.00000000E+00  0.00000000E+00
  0.00000000E+00  0.00000000E+00  0.00000000E+00
  0.00000000E+00  0.00000000E+00  0.00000000E+00
  0.00000000E+00  0.00000000E+00  0.00000000E+00
  0.00000000E+00  0.00000000E+00  0.00000000E+00
  0.00000000E+00  0.00000000E+00  0.00000000E+00
  0.00000000E+00  0.00000000E+00  0.00000000E+00
  0.00000000E+00  0.00000000E+00  0.00000000E+00
  0.00000000E+00  0.00000000E+00  0.00000000E+00
  0.00000000E+00  0.00000000E+00  0.00000000E+00
  0.00000000E+00  0.00000000E+00  0.00000000E+00
  0.00000000E+00  0.00000000E+00  0.00000000E+00
  0.00000000E+00  0.00000000E+00  0.00000000E+00
  0.00000000E+00  0.00000000E+00  0.00000000E+00
  0.00000000E+00  0.00000000E+00  0.00000000E+00
  0.00000000E+00  0.00000000E+00  0.00000000E+00
  0.00000000E+00  0.00000000E+00  0.00000000E+00
  0.00000000E+00  0.00000000E+00  0.00000000E+00
  0.00000000E+00  0.00000000E+00  0.00000000E+00
  0.00000000E+00  0.00000000E+00  0.00000000E+00
  0.00000000E+00  0.00000000E+00  0.00000000E+00
  0.00000000E+00  0.00000000E+00  0.00000000E+00
  0.00000000E+00  0.00000000E+00  0.00000000E+00
  0.00000000E+00  0.00000000E+00  0.00000000E+00
  0.00000000E+00  0.00000000E+00  0.00000000E+00
  0.00000000E+00  0.00000000E+00  0.00000000E+00
  0.00000000E+00  0.00000000E+00  0.00000000E+00
  0.00000000E+00  0.00000000E+00  0.00000000E+00
  0.00000000E+00  0.00000000E+00  0.00000000E+00
  0.00000000E+00  0.00000000E+00  0.00000000E+00
  0.00000000E+00  0.00000000E+00  0.00000000E+00
  0.00000000E+00  0.00000000E+00  0.00000000E+00
  0.00000000E+00  0.00000000E+00  0.00000000E+00
  0.00000000E+00  0.00000000E+00  0.00000000E+00
  0.00000000E+00  0.00000000E+00  0.00000000E+00
  0.00000000E+00  0.00000000E+00  0.00000000E+00
  0.00000000E+00  0.00000000E+00  0.00000000E+00
  0.00000000E+00  0.00000000E+00  0.00000000E+00
  0.00000000E+00  0.00000000E+00  0.00000000E+00
  0.00000000E+00  0.00000000E+00  0.00000000E+00
  0.00000000E+00  0.00000000E+00  0.00000000E+00
  0.00000000E+00  0.00000000E+00  0.00000000E+00
  0.00000000E+00  0.00000000E+00  0.00000000E+00
  0.00000000E+00  0.00000000E+00  0.00000000E+00
  0.00000000E+00  0.00000000E+00  0.00000000E+00
  0.00000000E+00  0.00000000E+00  0.00000000E+00
  0.00000000E+00  0.00000000E+00  0.00000000E+00
  0.00000000E+00  0.00000000E+00  0.00000000E+00
  0.00000000E+00  0.00000000E+00  0.00000000E+00
  0.00000000E+00  0.00000000E+00  0.00000000E+00
  0.00000000E+00  0.00000000E+00  0.00000000E+00
  0.00000000E+00  0.00000000E+00  0.00000000E+00
  0.00000000E+00  0.00000000E+00  0.00000000E+00
  0.00000000E+00  0.00000000E+00  0.00000000E+00
  0.00000000E+00  0.00000000E+00  0.00000000E+00
  0.00000000E+00  0.00000000E+00  0.00000000E+00
  0.00000000E+00  0.00000000E+00  0.00000000E+00
  0.00000000E+00  0.00000000E+00  0.00000000E+00
  0.00000000E+00  0.00000000E+00  0.00000000E+00
  0.00000000E+00  0.00000000E+00  0.00000000E+00
  0.00000000E+00  0.00000000E+00  0.00000000E+00
